num_stars = 4;
dim = 17;
sectors = [|
1, 1, 1, 1, 1, 1, 1, 2, 2, 2, 2, 2, 2, 2, 2, 2, 2|
1, 1, 1, 1, 1, 1, 2, 2, 2, 2, 2, 2, 2, 2, 3, 2, 3|
1, 4, 1, 1, 1, 1, 1, 2, 2, 5, 5, 5, 2, 3, 3, 3, 3|
6, 4, 1, 4, 1, 1, 1, 1, 7, 7, 7, 5, 2, 3, 8, 3, 8|
6, 4, 4, 4, 4, 1, 1, 7, 7, 7, 7, 5, 8, 8, 8, 8, 8|
6, 6, 4, 6, 4, 1, 9, 9, 9, 7, 7, 5, 8, 8, 8, 8, 8|
6, 6, 6, 6, 6, 1, 9, 10, 9, 7, 7, 5, 8, 8, 8, 8, 8|
6, 6, 6, 6, 9, 9, 9, 10, 10, 7, 7, 5, 5, 8, 8, 8, 8|
6, 6, 6, 6, 9, 10, 9, 10, 10, 7, 7, 7, 11, 11, 11, 8, 8|
12, 12, 13, 6, 10, 10, 10, 10, 7, 7, 7, 11, 11, 14, 11, 11, 14|
12, 12, 13, 13, 13, 10, 10, 10, 10, 7, 7, 11, 14, 14, 11, 14, 14|
12, 12, 13, 13, 10, 10, 10, 7, 7, 7, 14, 11, 11, 14, 11, 14, 14|
12, 12, 12, 13, 13, 10, 10, 10, 15, 7, 14, 14, 14, 14, 14, 14, 14|
12, 12, 12, 12, 10, 10, 10, 10, 15, 14, 14, 14, 15, 14, 16, 16, 14|
12, 12, 12, 17, 17, 17, 10, 15, 15, 15, 15, 15, 15, 14, 16, 16, 16|
12, 12, 12, 12, 17, 10, 10, 10, 10, 10, 10, 15, 16, 16, 16, 16, 16|
12, 12, 12, 12, 17, 17, 17, 17, 10, 10, 10, 10, 16, 16, 16, 16, 16|
];